data;


param d:= 100;
param r:=5;
param p:=0.700000;
param M:=1000;
param U:=
         1         1       -7.655120e-01
         2         1        9.339416e-01
         3         1       -5.196866e-03
         4         1        1.877402e+00
         5         1       -4.423009e-01
         6         1       -2.959262e-01
         7         1        2.188212e+00
         8         1        2.657254e-02
         9         1       -4.998400e-01
        10         1       -1.167419e+00
        11         1        9.663701e-01
        12         1       -1.424397e+00
        13         1       -1.072116e-01
        14         1        5.867010e-01
        15         1       -4.993694e-01
        16         1       -6.672150e-01
        17         1        1.689004e+00
        18         1        6.162094e-01
        19         1        1.377498e+00
        20         1       -6.052747e-01
        21         1       -2.187718e+00
        22         1       -4.370037e-01
        23         1       -1.211747e+00
        24         1       -9.925034e-01
        25         1        1.009762e+00
        26         1        2.384354e+00
        27         1        7.389772e-02
        28         1        5.837404e-01
        29         1       -4.082664e-01
        30         1        1.279765e+00
        31         1       -8.414595e-01
        32         1        5.146794e-01
        33         1        9.287376e-01
        34         1        8.269936e-01
        35         1       -1.017522e+00
        36         1        2.213367e+00
        37         1       -2.568232e+00
        38         1        4.213902e-01
        39         1        2.277950e-01
        40         1        5.733137e-01
        41         1        8.047574e-01
        42         1       -1.889737e+00
        43         1        1.618726e-01
        44         1        1.199785e+00
        45         1        1.212313e+00
        46         1        1.537284e+00
        47         1       -3.900562e-01
        48         1       -9.683921e-01
        49         1        2.988263e-01
        50         1        3.927954e-01
        51         1        4.580071e-01
        52         1        4.653661e-01
        53         1        8.258485e-01
        54         1        1.428234e-01
        55         1        1.872021e+00
        56         1       -8.957842e-01
        57         1        3.108127e-01
        58         1       -1.444828e+00
        59         1        6.659080e-01
        60         1        2.183687e+00
        61         1       -3.434372e-01
        62         1       -3.014048e-01
        63         1        8.990976e-02
        64         1       -5.069224e-01
        65         1        1.481060e+00
        66         1        2.099578e-01
        67         1        6.956908e-01
        68         1       -1.361785e+00
        69         1        6.302342e-01
        70         1       -3.574955e-02
        71         1        1.549096e+00
        72         1       -9.184583e-01
        73         1        3.498225e-02
        74         1       -1.596500e+00
        75         1       -6.839383e-01
        76         1       -7.405012e-01
        77         1        4.978791e-01
        78         1        7.119252e-01
        79         1        2.910232e-01
        80         1       -1.394322e-01
        81         1       -3.289285e-01
        82         1       -1.347697e+00
        83         1        6.165149e-01
        84         1       -3.486644e-01
        85         1        4.166132e-01
        86         1       -7.381910e-01
        87         1        4.035655e-01
        88         1       -2.963793e-01
        89         1        8.540495e-01
        90         1        3.963887e-01
        91         1        4.160718e-01
        92         1       -1.484680e+00
        93         1        8.739282e-01
        94         1       -1.911506e+00
        95         1        1.394626e+00
        96         1       -2.034741e-01
        97         1       -1.277416e+00
        98         1        6.833457e-01
        99         1        4.679073e-01
       100         1       -3.678085e-01
         1         2       -1.671321e-01
         2         2       -1.425995e+00
         3         2        1.443780e+00
         4         2        4.807744e-01
         5         2       -9.715380e-01
         6         2       -2.147761e-01
         7         2        1.811191e+00
         8         2       -3.976830e-01
         9         2       -1.621686e+00
        10         2       -6.034230e-01
        11         2        1.659416e-01
        12         2        1.267991e+00
        13         2        7.185436e-01
        14         2        2.326968e+00
        15         2       -8.278523e-01
        16         2       -1.074291e+00
        17         2        3.573075e-01
        18         2       -7.126978e-01
        19         2        2.266728e-01
        20         2       -4.579291e-02
        21         2       -2.131136e+00
        22         2        6.571118e-01
        23         2       -9.575512e-01
        24         2       -3.134890e-01
        25         2        3.435156e-01
        26         2        2.726345e-01
        27         2        5.257501e-01
        28         2        1.206483e-01
        29         2        2.438471e-01
        30         2       -1.317773e+00
        31         2        6.444721e-01
        32         2       -5.248177e-01
        33         2        6.172344e-03
        34         2       -2.094334e+00
        35         2       -2.409218e-01
        36         2       -2.122329e+00
        37         2        8.922350e-01
        38         2        1.814871e-01
        39         2        1.090764e-02
        40         2       -1.043160e-01
        41         2       -9.135544e-01
        42         2        1.626838e+00
        43         2       -1.711735e+00
        44         2       -1.030984e+00
        45         2        7.225249e-01
        46         2        1.651880e+00
        47         2        5.419834e-01
        48         2        1.053127e+00
        49         2       -1.201515e-01
        50         2       -2.598434e+00
        51         2       -2.136525e-01
        52         2        1.083630e+00
        53         2       -9.274125e-01
        54         2       -1.217214e+00
        55         2        1.093891e-01
        56         2       -1.675708e+00
        57         2       -2.793529e-01
        58         2        9.157071e-01
        59         2       -4.783138e-01
        60         2        1.203379e+00
        61         2        3.271989e-01
        62         2       -8.455791e-01
        63         2       -5.164991e-01
        64         2        5.088292e-01
        65         2       -9.973887e-01
        66         2       -1.864394e-01
        67         2       -4.342460e-01
        68         2        1.486343e+00
        69         2        1.822749e+00
        70         2       -1.316259e+00
        71         2       -1.598773e+00
        72         2       -1.304811e+00
        73         2       -3.711020e-01
        74         2        3.856466e-01
        75         2        4.595889e-01
        76         2       -8.123691e-01
        77         2       -6.386064e-02
        78         2        8.945146e-01
        79         2       -1.453547e+00
        80         2        1.304218e+00
        81         2        1.392371e+00
        82         2        1.525147e+00
        83         2        1.943576e-01
        84         2        4.701067e-02
        85         2        3.453890e-01
        86         2       -2.043370e+00
        87         2        1.087557e-01
        88         2       -4.012451e-01
        89         2       -2.101331e-01
        90         2       -7.361445e-01
        91         2       -1.893591e-01
        92         2       -1.081533e+00
        93         2       -4.892241e-01
        94         2       -1.084085e-01
        95         2        5.093815e-01
        96         2       -1.998060e+00
        97         2        8.978172e-01
        98         2        8.456673e-01
        99         2        1.959040e-01
       100         2       -6.889597e-01
         1         3       -1.666034e-01
         2         3        6.536062e-01
         3         3        1.338713e+00
         4         3       -3.893540e-01
         5         3       -2.027878e+00
         6         3        1.927775e+00
         7         3       -1.113003e+00
         8         3       -8.679818e-01
         9         3        1.196440e+00
        10         3        3.446589e-01
        11         3       -7.984895e-01
        12         3       -9.159999e-01
        13         3        8.913820e-01
        14         3       -1.257846e+00
        15         3        2.850665e-01
        16         3        2.211835e-01
        17         3        9.903744e-01
        18         3       -3.398758e-01
        19         3        2.179496e-01
        20         3       -8.606794e-01
        21         3       -8.295951e-01
        22         3       -7.493788e-01
        23         3       -2.862747e-02
        24         3        1.043470e+00
        25         3        2.054967e-01
        26         3       -1.555203e+00
        27         3        5.091798e-01
        28         3       -1.135018e-01
        29         3       -5.986923e-01
        30         3       -8.303553e-01
        31         3        2.541759e+00
        32         3       -7.500587e-01
        33         3        9.066572e-02
        34         3       -8.367681e-01
        35         3        5.396775e-01
        36         3       -5.413365e-01
        37         3        1.577878e+00
        38         3        1.136918e+00
        39         3       -2.144748e+00
        40         3       -1.588367e+00
        41         3       -1.389713e+00
        42         3       -6.148782e-01
        43         3        5.559349e-01
        44         3       -7.223600e-02
        45         3        1.023045e+00
        46         3        1.164213e-01
        47         3       -2.887559e-01
        48         3        3.507184e-03
        49         3        1.619626e+00
        50         3        1.342500e-01
        51         3       -1.587063e+00
        52         3       -6.393183e-01
        53         3        6.663939e-01
        54         3        6.373660e-01
        55         3        7.933072e-01
        56         3        1.279311e+00
        57         3       -3.018903e-01
        58         3       -6.788604e-01
        59         3        1.035954e+00
        60         3        1.144519e+00
        61         3       -1.538906e+00
        62         3       -3.966395e-01
        63         3       -2.174510e-01
        64         3        7.678955e-01
        65         3       -6.034403e-02
        66         3        4.151886e-01
        67         3       -1.228968e+00
        68         3        1.873755e+00
        69         3       -5.340928e-01
        70         3        6.502264e-01
        71         3       -1.654932e+00
        72         3       -9.623906e-01
        73         3        1.444905e+00
        74         3       -1.715153e+00
        75         3        6.342936e-01
        76         3        8.838107e-01
        77         3       -3.827090e-01
        78         3       -6.273712e-02
        79         3       -1.328401e+00
        80         3        1.506050e+00
        81         3       -2.408314e-01
        82         3        7.968026e-01
        83         3       -1.484418e+00
        84         3        4.631486e-01
        85         3        4.286454e-01
        86         3       -1.568827e+00
        87         3        6.704058e-01
        88         3       -7.380878e-01
        89         3       -3.865556e-01
        90         3        1.115749e+00
        91         3       -4.343274e-01
        92         3       -3.932913e-01
        93         3       -1.940009e-01
        94         3       -1.157165e+00
        95         3       -1.344550e+00
        96         3        9.334468e-01
        97         3        1.747925e-01
        98         3        8.641869e-01
        99         3       -2.471341e-01
       100         3        1.375775e-01
         1         4       -3.770554e-01
         2         4        1.191225e+00
         3         4        7.195638e-02
         4         4       -6.235364e-01
         5         4        1.512240e+00
         6         4       -1.949594e+00
         7         4        3.778186e-01
         8         4        2.061459e-01
         9         4        1.156533e+00
        10         4       -6.696001e-01
        11         4        8.082903e-02
        12         4       -1.429310e-01
        13         4        5.534037e-01
        14         4        7.463098e-01
        15         4       -1.066440e+00
        16         4       -1.939171e-01
        17         4       -7.103519e-01
        18         4        2.707574e-02
        19         4        9.981170e-01
        20         4       -1.136258e+00
        21         4       -3.191488e-01
        22         4       -2.293889e+00
        23         4        1.018439e-02
        24         4       -1.503278e+00
        25         4        2.328766e-01
        26         4        2.423629e-02
        27         4        7.604124e-01
        28         4        3.186430e-01
        29         4       -1.750471e+00
        30         4       -6.568545e-01
        31         4       -2.135392e-01
        32         4        8.405920e-01
        33         4       -1.500142e-01
        34         4        1.171289e-01
        35         4        2.147462e-01
        36         4        1.563468e+00
        37         4        7.790990e-01
        38         4       -1.211373e-01
        39         4        2.473420e-01
        40         4        4.246096e-01
        41         4       -1.212777e+00
        42         4        9.887529e-01
        43         4       -4.684935e-01
        44         4       -2.211178e-01
        45         4        2.578223e+00
        46         4        3.969352e-01
        47         4       -2.029471e-01
        48         4        1.084363e+00
        49         4        3.229280e-01
        50         4        1.068272e+00
        51         4       -3.704505e-01
        52         4        9.053593e-01
        53         4       -1.174204e+00
        54         4       -3.753367e-01
        55         4        1.123944e+00
        56         4       -4.075226e-02
        57         4       -1.557147e+00
        58         4        1.884016e+00
        59         4       -2.666579e-01
        60         4       -9.126641e-01
        61         4        9.262909e-01
        62         4        1.286079e-01
        63         4       -5.770011e-01
        64         4        8.345671e-01
        65         4        2.806487e-01
        66         4        2.508835e-01
        67         4       -1.569833e+00
        68         4        3.537581e-01
        69         4        6.112097e-01
        70         4       -3.912026e-01
        71         4        6.605262e-01
        72         4        1.592328e+00
        73         4       -6.762399e-02
        74         4        2.680937e-01
        75         4        5.448945e-01
        76         4        2.673700e-01
        77         4        2.762620e-01
        78         4        4.913821e-01
        79         4       -6.068683e-01
        80         4       -7.317725e-01
        81         4        9.227057e-01
        82         4        3.793995e-01
        83         4       -4.762987e-01
        84         4        3.957657e-01
        85         4       -9.905472e-01
        86         4       -3.172296e-02
        87         4        2.294145e+00
        88         4       -5.108316e-01
        89         4        4.012066e-01
        90         4        5.127454e-01
        91         4        4.795157e-01
        92         4        5.087284e-02
        93         4       -1.265931e+00
        94         4        2.261028e+00
        95         4        4.379801e-01
        96         4        5.649295e-01
        97         4        1.852794e+00
        98         4       -1.017718e+00
        99         4        3.043619e-02
       100         4        7.774648e-01
         1         5        6.574042e-01
         2         5       -1.115699e-01
         3         5        1.547893e+00
         4         5       -6.293643e-02
         5         5       -4.275584e-01
         6         5       -1.219491e+00
         7         5       -2.215730e+00
         8         5       -1.225109e+00
         9         5       -7.068984e-01
        10         5        5.108387e-02
        11         5        8.080274e-01
        12         5        1.380939e+00
        13         5       -1.675459e-01
        14         5       -3.702623e-01
        15         5       -7.125009e-01
        16         5       -7.180330e-02
        17         5       -1.023294e+00
        18         5       -5.560760e-02
        19         5       -9.069515e-01
        20         5       -7.947804e-02
        21         5        1.613430e+00
        22         5       -1.517059e+00
        23         5        3.288396e-01
        24         5        1.562141e+00
        25         5       -6.192666e-01
        26         5       -6.365930e-01
        27         5       -9.922219e-01
        28         5       -2.170714e-01
        29         5       -2.673062e-01
        30         5       -1.525440e+00
        31         5        1.750775e+00
        32         5       -1.322753e+00
        33         5        1.299475e+00
        34         5        1.718963e+00
        35         5        6.832174e-01
        36         5        4.461300e-01
        37         5       -4.902368e-01
        38         5       -1.613848e+00
        39         5        4.094878e-01
        40         5        2.335754e+00
        41         5       -1.744194e+00
        42         5       -1.635117e+00
        43         5        3.791556e-01
        44         5       -3.236329e-01
        45         5        6.042629e-01
        46         5       -2.004012e-01
        47         5        4.611802e-01
        48         5        8.934378e-01
        49         5        3.765832e-01
        50         5       -1.580750e+00
        51         5       -6.018978e-01
        52         5        1.116655e+00
        53         5       -5.283927e-01
        54         5        1.294123e-02
        55         5        7.212777e-02
        56         5        4.621551e-01
        57         5       -1.001856e-01
        58         5        7.363439e-01
        59         5        3.260511e+00
        60         5        2.632161e-01
        61         5        1.764301e+00
        62         5       -1.926586e+00
        63         5        1.865525e+00
        64         5        1.265055e-01
        65         5       -8.976508e-01
        66         5        2.405492e-01
        67         5        1.256260e+00
        68         5        6.086481e-01
        69         5       -1.076774e+00
        70         5       -9.811025e-01
        71         5        7.236801e-01
        72         5       -6.600721e-01
        73         5        1.008147e+00
        74         5        8.883215e-01
        75         5       -1.840121e-01
        76         5       -1.050773e+00
        77         5       -1.742791e-01
        78         5       -9.702852e-01
        79         5       -1.136114e+00
        80         5        3.029768e-01
        81         5        5.975983e-01
        82         5        1.501323e+00
        83         5        1.012611e+00
        84         5        8.868589e-01
        85         5        5.841822e-01
        86         5       -1.076034e+00
        87         5       -1.389410e+00
        88         5        9.860574e-01
        89         5       -2.746464e+00
        90         5       -3.917017e-01
        91         5       -9.879583e-01
        92         5       -5.010032e-02
        93         5       -2.073965e-01
        94         5        2.720485e-01
        95         5        9.803445e-01
        96         5        7.164799e-01
        97         5        9.642320e-01
        98         5        7.859960e-02
        99         5        4.708809e-01
       100         5       -1.038245e+00
;

param theta:=
    1       -2.062732e+00
    2       -1.374842e-01
    3       -7.196821e-01
    4        2.272068e-01
    5       -9.690392e-01
;
param X_true:=
    1        9.992058e-01
    2       -1.822038e+00
    3       -2.634844e+00
    4       -3.739150e+00
    5        3.263259e+00
    6       -8.666946e-03
    7       -1.728724e+00
    8        1.858551e+00
    9        1.340721e+00
   10        2.041350e+00
   11       -2.206164e+00
   12        2.052391e+00
   13       -2.310556e-01
   14       -9.651382e-02
   15        1.386864e+00
   16        1.390323e+00
   17       -3.415626e+00
   18       -8.684500e-01
   19       -1.923776e+00
   20        1.693083e+00
   21        3.766729e+00
   22        2.299296e+00
   23        2.335416e+00
   24       -5.159295e-01
   25       -1.624983e+00
   26       -3.214124e+00
   27        5.431117e-01
   28       -8.562537e-01
   29        1.100798e+00
   30       -5.320791e-01
   31       -1.927245e+00
   32        1.023100e+00
   33       -3.275163e+00
   34       -2.454851e+00
   35        1.130331e+00
   36       -3.961293e+00
   37        4.691412e+00
   38       -1.760275e-01
   39        7.315454e-01
   40       -2.192094e+00
   41        8.803932e-01
   42        5.926018e+00
   43       -9.725214e-01
   44       -2.017730e+00
   45       -3.336045e+00
   46       -3.197517e+00
   47        4.448671e-01
   48        1.230819e+00
   49       -2.057048e+00
   50        1.224922e+00
   51        7.259020e-01
   52       -1.525181e+00
   53       -1.810346e+00
   54       -6.837792e-01
   55       -4.261973e+00
   56        7.003436e-01
   57       -6.421624e-01
   58        3.057477e+00
   59       -5.273536e+00
   60       -5.955928e+00
   61        2.717408e-01
   62        2.919583e+00
   63       -1.896819e+00
   64        4.900791e-01
   65       -1.940853e+00
   66       -8.823572e-01
   67       -2.064898e+00
   68        7.467130e-01
   69        1.608078e-02
   70        6.485933e-01
   71       -2.335739e+00
   72        3.767963e+00
   73       -2.053309e+00
   74        3.674591e+00
   75        1.193225e+00
   76        2.082070e+00
   77       -5.111309e-01
   78       -4.944523e-01
   79        1.518618e+00
   80       -1.435435e+00
   81        2.909332e-01
   82        6.281711e-01
   83       -1.319595e+00
   84       -3.900620e-01
   85       -2.006490e+00
   86        3.968189e+00
   87        5.377592e-01
   88        1.261117e-01
   89        1.298000e+00
   90       -1.023347e+00
   91        5.466864e-01
   92        3.554343e+00
   93       -1.682453e+00
   94        5.040716e+00
   95       -2.829604e+00
   96       -5.433120e-01
   97        1.872325e+00
   98       -2.455164e+00
   99       -1.263630e+00
  100        1.937145e+00
;
param X:=
    1       -2.707383e-01
    2        1.292139e+00
    3       -1.603079e-01
    4        7.865202e-01
    5        3.263259e+00
    6        2.397634e+00
    7       -1.728724e+00
    8       -7.897613e-01
    9       -1.784694e+00
   10        2.041350e+00
   11       -9.752097e-02
   12        4.140719e-01
   13       -2.310556e-01
   14        1.464894e+00
   15        1.386864e+00
   16       -3.889522e-01
   17       -2.653972e-01
   18       -1.363477e+00
   19        5.966379e-01
   20       -3.798829e-02
   21        3.766729e+00
   22       -6.749337e-01
   23        5.393769e-01
   24        5.473181e-01
   25       -2.255249e+00
   26        7.390415e-01
   27       -9.412955e-01
   28       -8.562537e-01
   29       -8.318118e-01
   30       -4.162769e-01
   31        9.067464e-01
   32        1.023100e+00
   33        1.584953e+00
   34       -2.454851e+00
   35       -3.130568e-01
   36       -8.936920e-01
   37        3.582753e-01
   38       -1.246100e-01
   39        7.315454e-01
   40       -1.318342e+00
   41       -2.490285e-01
   42       -1.565891e+00
   43       -6.071793e-01
   44       -7.535705e-02
   45       -5.140455e-01
   46       -6.386128e-01
   47       -3.966375e-01
   48        1.230819e+00
   49        3.743376e-01
   50       -9.419788e-01
   51        3.815661e-01
   52        1.218482e+00
   53       -6.150452e-01
   54       -6.837792e-01
   55       -4.261973e+00
   56       -1.928799e-01
   57       -6.421624e-01
   58        3.057477e+00
   59       -2.261701e-01
   60       -4.960022e-01
   61        2.717408e-01
   62       -1.585831e+00
   63        5.811582e-01
   64        4.900791e-01
   65       -6.927845e-01
   66       -1.269498e-01
   67        9.648533e-02
   68        7.467130e-01
   69        2.867664e-01
   70        9.233730e-01
   71       -1.278651e+00
   72        3.635280e-01
   73       -2.053309e+00
   74       -3.456839e-01
   75        1.193225e+00
   76       -1.657228e+00
   77       -5.111309e-01
   78        4.119696e-01
   79       -8.966695e-01
   80        8.407660e-01
   81        2.909332e-01
   82        2.686400e+00
   83       -1.319595e+00
   84        6.527786e-01
   85       -2.006490e+00
   86        3.968189e+00
   87        9.017676e-01
   88       -8.873316e-01
   89        1.298000e+00
   90       -1.023347e+00
   91        5.466864e-01
   92       -2.756149e-01
   93       -1.682453e+00
   94        6.235814e-01
   95       -2.829604e+00
   96       -4.574634e-01
   97        1.193656e+00
   98        6.718852e-01
   99       -1.523778e+00
  100        1.641899e+00
;
param outliervec:=
    1    1
    2    1
    3    1
    4    1
    5    0
    6    1
    7    0
    8    1
    9    1
   10    0
   11    1
   12    1
   13    0
   14    1
   15    0
   16    1
   17    1
   18    1
   19    1
   20    1
   21    0
   22    1
   23    1
   24    1
   25    1
   26    1
   27    1
   28    0
   29    1
   30    1
   31    1
   32    0
   33    1
   34    0
   35    1
   36    1
   37    1
   38    1
   39    0
   40    1
   41    1
   42    1
   43    1
   44    1
   45    1
   46    1
   47    1
   48    0
   49    1
   50    1
   51    1
   52    1
   53    1
   54    0
   55    0
   56    1
   57    0
   58    0
   59    1
   60    1
   61    0
   62    1
   63    1
   64    0
   65    1
   66    1
   67    1
   68    0
   69    1
   70    1
   71    1
   72    1
   73    0
   74    1
   75    0
   76    1
   77    0
   78    1
   79    1
   80    1
   81    0
   82    1
   83    0
   84    1
   85    0
   86    0
   87    1
   88    1
   89    0
   90    0
   91    0
   92    1
   93    0
   94    1
   95    0
   96    1
   97    1
   98    1
   99    1
  100    1
;